(declare-const tmp Int)
(declare-const |x':47| Int)
(declare-const |tmp':48| Int)
(declare-const |havoc:0:46| Int)
(declare-const |K:52| Int)
(assert (and (or (not (<= (- |K:52|) 0)) (= (+ |x':47| (* -2 |K:52|) -1) 0))
               (or (and (= |K:52| 0) (= (+ (- |tmp':48|) tmp) 0)
                          (= (+ (- |x':47|) 1) 0))
                     (and (<= (+ (- |K:52|) 1) 0) (<= (+ (- |x':47|) 3) 0)))
               (<= (- |K:52|) 0) (< (- |x':47|) 0) (= |havoc:0:46| 0)
               (= (mod |x':47| 2) 0)))
(check-sat)
